\ Model mip1
\ LP format - for model browsing. Use MPS format to capture full model detail.
Minimize
  0.6080862656761671 f(x_0) + 0.6139893006771771 f(x_1)
   + 0.5809778898001581 f(x_2) + 0.3699958937912399 f(x_3)
   + 0.36076133553915 f(x_4) + 0.3761494100378423 f(x_5)
   + 0.3111607203519376 f(x_6) + 0.5374765190827735 f(x_7)
   + 0.5727685440993915 f(x_8) + 0.5256576596409881 f(x_9)
   + 0.4881601930317805 f(x_10) + 0.5022269165135584 f(x_11)
   + 0.525548365009183 f(x_12) + 0.7251142023739184 f(x_13)
   + 0.5831310986988776 f(x_14) + 0.5595669322116532 f(x_15)
   + 0.5688793462709638 f(x_16) + 0.2696548255069621 f(x_17)
   + 0.6815243545204328 f(x_18) + 0.5126491813001239 f(x_19)
   + 0.411550717301467 f(x_20) + 0.3591805064956671 f(x_21)
   + 0.599712638844661 f(x_22) + 0.6495950884035069 f(x_23)
   + 0.2500448134055004 f(x_24) + 0.4740704535258732 f(x_25)
   + 0.7473710451523505 f(x_26) + 0.3400796766913858 f(x_27)
   + 0.4260824414773069 f(x_28) + 0.6658826020207472 f(x_29)
   + 0.3850681943652194 f(x_30) + 0.4565640095172929 f(x_31)
   + 0.5693726663581229 f(x_32) + 0.6668456602500509 f(x_33)
   + 0.2913466522899631 f(x_34) + 0.4074899725614709 f(x_35)
   + 0.5373218370294028 f(x_36) + 0.7012526410297282 f(x_37)
   + 0.5528420363537867 f(x_38) + 0.5974373720544826 f(x_39)
   + 0.6884654553603884 f(x_40) + 0.4509252001732964 f(x_41)
   + 0.3380085004271477 f(x_42) + 0.3610690871181209 f(x_43)
   + 0.2864963132925039 f(x_44) + 0.5937507481831108 f(x_45)
   + 0.5207007522414078 f(x_46) + 0.7164409359828161 f(x_47)
   + 0.3623978406911367 f(x_48) + 0.2527850136954324 f(x_49)
   + 0.4183171184317376 f(x_50) + 0.500690300012023 f(x_51)
   + 0.3427117849703794 f(x_52) + 0.4009903598322654 f(x_53)
   + 0.3957795767846872 f(x_54) + 0.4239541270382074 f(x_55)
   + 0.6592007337074397 f(x_56) + 0.4039168420408175 f(x_57)
   + 0.2975570646782255 f(x_58) + 0.6833050095086151 f(x_59)
   + 0.4288286928422754 f(x_60) + 0.7022831037128862 f(x_61)
   + 0.4519916925951539 f(x_62) + 0.4866094526018775 f(x_63)
   + 0.4609529613147609 f(x_64) + 0.4669162674227718 f(x_65)
   + 0.4120479468824753 f(x_66) + 0.3224845092057367 f(x_67)
   + 0.6389539181210584 f(x_68) + 0.4950024006387033 f(x_69)
   + 0.5068233326363407 f(x_70) + 0.2920310316936434 f(x_71)
   + 0.5298930979337906 f(x_72) + 0.6087582593929275 f(x_73)
   + 0.3808921806150448 f(x_74) + 0.5642552042150204 f(x_75)
   + 0.594607933689679 f(x_76) + 0.4561042861206472 f(x_77)
   + 0.6885332557277912 f(x_78) + 0.3579595080505042 f(x_79)
   + 0.5626418637925052 f(x_80) + 0.6904372255392995 f(x_81)
   + 0.6493101793140434 f(x_82) + 0.4509602445259087 f(x_83)
   + 0.5307772004297902 f(x_84) + 0.3301590075668682 f(x_85)
   + 0.7234424242124757 f(x_86) + 0.4211476099114468 f(x_87)
   + 0.6273334464700946 f(x_88) + 0.4252966934532174 f(x_89)
   + 0.5384942898762226 f(x_90) + 0.6304636278212141 f(x_91)
   + 0.6489236239995986 f(x_92) + 0.643958647730257 f(x_93)
   + 0.650719107802451 f(x_94) + 0.2921629474168927 f(x_95)
   + 0.4327304618516605 f(x_96) + 0.4079000446272693 f(x_97)
   + 0.6665076722958421 f(x_98) + 0.50457959970531 f(x_99)
Subject To
 R0: x_0 + x_1 + x_2 + x_3 + x_4 + x_5 + x_6 + x_7 + x_8 + x_9 + x_10
   + x_11 + x_12 + x_13 + x_14 + x_15 + x_16 + x_17 + x_18 + x_19 + x_20
   + x_21 + x_22 + x_23 + x_24 + x_25 + x_26 + x_27 + x_28 + x_29 + x_30
   + x_31 + x_32 + x_33 + x_34 + x_35 + x_36 + x_37 + x_38 + x_39 + x_40
   + x_41 + x_42 + x_43 + x_44 + x_45 + x_46 + x_47 + x_48 + x_49 + x_50
   + x_51 + x_52 + x_53 + x_54 + x_55 + x_56 + x_57 + x_58 + x_59 + x_60
   + x_61 + x_62 + x_63 + x_64 + x_65 + x_66 + x_67 + x_68 + x_69 + x_70
   + x_71 + x_72 + x_73 + x_74 + x_75 + x_76 + x_77 + x_78 + x_79 + x_80
   + x_81 + x_82 + x_83 + x_84 + x_85 + x_86 + x_87 + x_88 + x_89 + x_90
   + x_91 + x_92 + x_93 + x_94 + x_95 + x_96 + x_97 + x_98 + x_99 = 5
Bounds
 x_0 <= 5
 x_1 <= 5
 x_2 <= 5
 x_3 <= 5
 x_4 <= 5
 x_5 <= 5
 x_6 <= 5
 x_7 <= 5
 x_8 <= 5
 x_9 <= 5
 x_10 <= 5
 x_11 <= 5
 x_12 <= 5
 x_13 <= 5
 x_14 <= 5
 x_15 <= 5
 x_16 <= 5
 x_17 <= 5
 x_18 <= 5
 x_19 <= 5
 x_20 <= 5
 x_21 <= 5
 x_22 <= 5
 x_23 <= 5
 x_24 <= 5
 x_25 <= 5
 x_26 <= 5
 x_27 <= 5
 x_28 <= 5
 x_29 <= 5
 x_30 <= 5
 x_31 <= 5
 x_32 <= 5
 x_33 <= 5
 x_34 <= 5
 x_35 <= 5
 x_36 <= 5
 x_37 <= 5
 x_38 <= 5
 x_39 <= 5
 x_40 <= 5
 x_41 <= 5
 x_42 <= 5
 x_43 <= 5
 x_44 <= 5
 x_45 <= 5
 x_46 <= 5
 x_47 <= 5
 x_48 <= 5
 x_49 <= 5
 x_50 <= 5
 x_51 <= 5
 x_52 <= 5
 x_53 <= 5
 x_54 <= 5
 x_55 <= 5
 x_56 <= 5
 x_57 <= 5
 x_58 <= 5
 x_59 <= 5
 x_60 <= 5
 x_61 <= 5
 x_62 <= 5
 x_63 <= 5
 x_64 <= 5
 x_65 <= 5
 x_66 <= 5
 x_67 <= 5
 x_68 <= 5
 x_69 <= 5
 x_70 <= 5
 x_71 <= 5
 x_72 <= 5
 x_73 <= 5
 x_74 <= 5
 x_75 <= 5
 x_76 <= 5
 x_77 <= 5
 x_78 <= 5
 x_79 <= 5
 x_80 <= 5
 x_81 <= 5
 x_82 <= 5
 x_83 <= 5
 x_84 <= 5
 x_85 <= 5
 x_86 <= 5
 x_87 <= 5
 x_88 <= 5
 x_89 <= 5
 x_90 <= 5
 x_91 <= 5
 x_92 <= 5
 x_93 <= 5
 x_94 <= 5
 x_95 <= 5
 x_96 <= 5
 x_97 <= 5
 x_98 <= 5
 x_99 <= 5
Generals
 x_0 x_1 x_2 x_3 x_4 x_5 x_6 x_7 x_8 x_9 x_10 x_11 x_12 x_13 x_14 x_15 x_16
 x_17 x_18 x_19 x_20 x_21 x_22 x_23 x_24 x_25 x_26 x_27 x_28 x_29 x_30 x_31
 x_32 x_33 x_34 x_35 x_36 x_37 x_38 x_39 x_40 x_41 x_42 x_43 x_44 x_45 x_46
 x_47 x_48 x_49 x_50 x_51 x_52 x_53 x_54 x_55 x_56 x_57 x_58 x_59 x_60 x_61
 x_62 x_63 x_64 x_65 x_66 x_67 x_68 x_69 x_70 x_71 x_72 x_73 x_74 x_75 x_76
 x_77 x_78 x_79 x_80 x_81 x_82 x_83 x_84 x_85 x_86 x_87 x_88 x_89 x_90 x_91
 x_92 x_93 x_94 x_95 x_96 x_97 x_98 x_99
General Constraints
 constr_x_0: f(x_0) = POW ( x_0 ^ 0.9090909090909091 )
 constr_x_1: f(x_1) = POW ( x_1 ^ 0.9090909090909091 )
 constr_x_2: f(x_2) = POW ( x_2 ^ 0.9090909090909091 )
 constr_x_3: f(x_3) = POW ( x_3 ^ 0.9090909090909091 )
 constr_x_4: f(x_4) = POW ( x_4 ^ 0.9090909090909091 )
 constr_x_5: f(x_5) = POW ( x_5 ^ 0.9090909090909091 )
 constr_x_6: f(x_6) = POW ( x_6 ^ 0.9090909090909091 )
 constr_x_7: f(x_7) = POW ( x_7 ^ 0.9090909090909091 )
 constr_x_8: f(x_8) = POW ( x_8 ^ 0.9090909090909091 )
 constr_x_9: f(x_9) = POW ( x_9 ^ 0.9090909090909091 )
 constr_x_10: f(x_10) = POW ( x_10 ^ 0.9090909090909091 )
 constr_x_11: f(x_11) = POW ( x_11 ^ 0.9090909090909091 )
 constr_x_12: f(x_12) = POW ( x_12 ^ 0.9090909090909091 )
 constr_x_13: f(x_13) = POW ( x_13 ^ 0.9090909090909091 )
 constr_x_14: f(x_14) = POW ( x_14 ^ 0.9090909090909091 )
 constr_x_15: f(x_15) = POW ( x_15 ^ 0.9090909090909091 )
 constr_x_16: f(x_16) = POW ( x_16 ^ 0.9090909090909091 )
 constr_x_17: f(x_17) = POW ( x_17 ^ 0.9090909090909091 )
 constr_x_18: f(x_18) = POW ( x_18 ^ 0.9090909090909091 )
 constr_x_19: f(x_19) = POW ( x_19 ^ 0.9090909090909091 )
 constr_x_20: f(x_20) = POW ( x_20 ^ 0.9090909090909091 )
 constr_x_21: f(x_21) = POW ( x_21 ^ 0.9090909090909091 )
 constr_x_22: f(x_22) = POW ( x_22 ^ 0.9090909090909091 )
 constr_x_23: f(x_23) = POW ( x_23 ^ 0.9090909090909091 )
 constr_x_24: f(x_24) = POW ( x_24 ^ 0.9090909090909091 )
 constr_x_25: f(x_25) = POW ( x_25 ^ 0.9090909090909091 )
 constr_x_26: f(x_26) = POW ( x_26 ^ 0.9090909090909091 )
 constr_x_27: f(x_27) = POW ( x_27 ^ 0.9090909090909091 )
 constr_x_28: f(x_28) = POW ( x_28 ^ 0.9090909090909091 )
 constr_x_29: f(x_29) = POW ( x_29 ^ 0.9090909090909091 )
 constr_x_30: f(x_30) = POW ( x_30 ^ 0.9090909090909091 )
 constr_x_31: f(x_31) = POW ( x_31 ^ 0.9090909090909091 )
 constr_x_32: f(x_32) = POW ( x_32 ^ 0.9090909090909091 )
 constr_x_33: f(x_33) = POW ( x_33 ^ 0.9090909090909091 )
 constr_x_34: f(x_34) = POW ( x_34 ^ 0.9090909090909091 )
 constr_x_35: f(x_35) = POW ( x_35 ^ 0.9090909090909091 )
 constr_x_36: f(x_36) = POW ( x_36 ^ 0.9090909090909091 )
 constr_x_37: f(x_37) = POW ( x_37 ^ 0.9090909090909091 )
 constr_x_38: f(x_38) = POW ( x_38 ^ 0.9090909090909091 )
 constr_x_39: f(x_39) = POW ( x_39 ^ 0.9090909090909091 )
 constr_x_40: f(x_40) = POW ( x_40 ^ 0.9090909090909091 )
 constr_x_41: f(x_41) = POW ( x_41 ^ 0.9090909090909091 )
 constr_x_42: f(x_42) = POW ( x_42 ^ 0.9090909090909091 )
 constr_x_43: f(x_43) = POW ( x_43 ^ 0.9090909090909091 )
 constr_x_44: f(x_44) = POW ( x_44 ^ 0.9090909090909091 )
 constr_x_45: f(x_45) = POW ( x_45 ^ 0.9090909090909091 )
 constr_x_46: f(x_46) = POW ( x_46 ^ 0.9090909090909091 )
 constr_x_47: f(x_47) = POW ( x_47 ^ 0.9090909090909091 )
 constr_x_48: f(x_48) = POW ( x_48 ^ 0.9090909090909091 )
 constr_x_49: f(x_49) = POW ( x_49 ^ 0.9090909090909091 )
 constr_x_50: f(x_50) = POW ( x_50 ^ 0.9090909090909091 )
 constr_x_51: f(x_51) = POW ( x_51 ^ 0.9090909090909091 )
 constr_x_52: f(x_52) = POW ( x_52 ^ 0.9090909090909091 )
 constr_x_53: f(x_53) = POW ( x_53 ^ 0.9090909090909091 )
 constr_x_54: f(x_54) = POW ( x_54 ^ 0.9090909090909091 )
 constr_x_55: f(x_55) = POW ( x_55 ^ 0.9090909090909091 )
 constr_x_56: f(x_56) = POW ( x_56 ^ 0.9090909090909091 )
 constr_x_57: f(x_57) = POW ( x_57 ^ 0.9090909090909091 )
 constr_x_58: f(x_58) = POW ( x_58 ^ 0.9090909090909091 )
 constr_x_59: f(x_59) = POW ( x_59 ^ 0.9090909090909091 )
 constr_x_60: f(x_60) = POW ( x_60 ^ 0.9090909090909091 )
 constr_x_61: f(x_61) = POW ( x_61 ^ 0.9090909090909091 )
 constr_x_62: f(x_62) = POW ( x_62 ^ 0.9090909090909091 )
 constr_x_63: f(x_63) = POW ( x_63 ^ 0.9090909090909091 )
 constr_x_64: f(x_64) = POW ( x_64 ^ 0.9090909090909091 )
 constr_x_65: f(x_65) = POW ( x_65 ^ 0.9090909090909091 )
 constr_x_66: f(x_66) = POW ( x_66 ^ 0.9090909090909091 )
 constr_x_67: f(x_67) = POW ( x_67 ^ 0.9090909090909091 )
 constr_x_68: f(x_68) = POW ( x_68 ^ 0.9090909090909091 )
 constr_x_69: f(x_69) = POW ( x_69 ^ 0.9090909090909091 )
 constr_x_70: f(x_70) = POW ( x_70 ^ 0.9090909090909091 )
 constr_x_71: f(x_71) = POW ( x_71 ^ 0.9090909090909091 )
 constr_x_72: f(x_72) = POW ( x_72 ^ 0.9090909090909091 )
 constr_x_73: f(x_73) = POW ( x_73 ^ 0.9090909090909091 )
 constr_x_74: f(x_74) = POW ( x_74 ^ 0.9090909090909091 )
 constr_x_75: f(x_75) = POW ( x_75 ^ 0.9090909090909091 )
 constr_x_76: f(x_76) = POW ( x_76 ^ 0.9090909090909091 )
 constr_x_77: f(x_77) = POW ( x_77 ^ 0.9090909090909091 )
 constr_x_78: f(x_78) = POW ( x_78 ^ 0.9090909090909091 )
 constr_x_79: f(x_79) = POW ( x_79 ^ 0.9090909090909091 )
 constr_x_80: f(x_80) = POW ( x_80 ^ 0.9090909090909091 )
 constr_x_81: f(x_81) = POW ( x_81 ^ 0.9090909090909091 )
 constr_x_82: f(x_82) = POW ( x_82 ^ 0.9090909090909091 )
 constr_x_83: f(x_83) = POW ( x_83 ^ 0.9090909090909091 )
 constr_x_84: f(x_84) = POW ( x_84 ^ 0.9090909090909091 )
 constr_x_85: f(x_85) = POW ( x_85 ^ 0.9090909090909091 )
 constr_x_86: f(x_86) = POW ( x_86 ^ 0.9090909090909091 )
 constr_x_87: f(x_87) = POW ( x_87 ^ 0.9090909090909091 )
 constr_x_88: f(x_88) = POW ( x_88 ^ 0.9090909090909091 )
 constr_x_89: f(x_89) = POW ( x_89 ^ 0.9090909090909091 )
 constr_x_90: f(x_90) = POW ( x_90 ^ 0.9090909090909091 )
 constr_x_91: f(x_91) = POW ( x_91 ^ 0.9090909090909091 )
 constr_x_92: f(x_92) = POW ( x_92 ^ 0.9090909090909091 )
 constr_x_93: f(x_93) = POW ( x_93 ^ 0.9090909090909091 )
 constr_x_94: f(x_94) = POW ( x_94 ^ 0.9090909090909091 )
 constr_x_95: f(x_95) = POW ( x_95 ^ 0.9090909090909091 )
 constr_x_96: f(x_96) = POW ( x_96 ^ 0.9090909090909091 )
 constr_x_97: f(x_97) = POW ( x_97 ^ 0.9090909090909091 )
 constr_x_98: f(x_98) = POW ( x_98 ^ 0.9090909090909091 )
 constr_x_99: f(x_99) = POW ( x_99 ^ 0.9090909090909091 )
End
